50 14
2 19 23
5 6 19 29 40 41
8 39 49 10 22 23 1 3 25
8 17 4 44 6 29 48 10 2
4 26 45 19 42
4 17 39 13 32
4 18 32 14 42
2 35 4
6 17 18 36 19 9 16
4 11 12 22 15
3 30 32 3
8 17 36 45 8 39 11 13 3
7 28 29 40 1 24 34 25
7 6 38 39 8 9 41 50
